SimulateSamplingPython/5cd39d9f5d6a4f7e8528aac508c5f7b1-pulp.sol
Optimal - objective value 0.00000000
      0 C0000000               0                       0
      1 C0000001              -2                       0
      2 C0000002              -2                       0
      3 C0000003             127                       0
      4 C0000004            5893                       0
      5 C0000005            5893                       0
      6 C0000006              -3                       0
      7 C0000007              -1                       0
      8 C0000008              -2                       0
      0 X0000000              -3                       0
      1 X0000001              -1                       0
      2 X0000002              -2                       0
      3 X0000003               0                       1
